NAME           NO_TITLE
ROWS
 N       OBJ
 L  R0000000
 E  R0000001
 E  R0000002
 E  R0000003
COLUMNS
    C0000000       OBJ  11
    C0000001       OBJ  7
    C0000002       OBJ  9
    C0000003  R0000000  2
    C0000004  R0000000  2
    C0000005  R0000000  2
    C0000006  R0000001  1
    C0000007  R0000002  1
    C0000008  R0000003  1
RHS
    RHS1      R0000000  1
    RHS1      R0000001  2.2360679774999999
    RHS1      R0000002  2.44948974278
    RHS1      R0000003  2.8284271247500001
BOUNDS
CSECTION      CONE0000   0  RQUAD
    C0000000 
    C0000003 
    C0000006 
CSECTION      CONE0001   0  RQUAD
    C0000001 
    C0000004 
    C0000007 
CSECTION      CONE0002   0  RQUAD
    C0000002 
    C0000005 
    C0000008 
ENDATA
